sat
(:added-eqs                       3240728
 :arith-eq-adapter                3511
 :arith-bound-propagations-lp     569439
 :arith-branch                    565
 :arith-conflicts                 43858
 :arith-cube-calls                260
 :arith-diseq                     1326743
 :arith-fixed-eqs                 825496
 :arith-gcd-calls                 5082
 :arith-gcd-conflict              7
 :arith-gomory-cuts               313
 :arith-grobner-calls             5664
 :arith-grobner-conflicts         1564
 :arith-hnf-calls                 9
 :arith-horner-calls              1489
 :arith-horner-conflicts          45
 :arith-horner-cross-nested-forms 164380
 :arith-lower                     1696361
 :arith-make-feasible             533072
 :arith-max-columns               3262
 :arith-max-rows                  1974
 :arith-nla-add-bounds            1444
 :arith-nla-lemmas                20607
 :arith-nla-propagate-bounds      7837
 :arith-nla-propagate-eq          907860
 :arith-nra-calls                 1989
 :arith-offset-eqs                860243
 :arith-patches                   5075
 :arith-patches-success           4079
 :arith-upper                     1989033
 :binary-propagations             8765911
 :cnf-encoding-aux-vars           8
 :conflicts                       29558
 :decisions                       3175543
 :del-clause                      86051
 :elim-unconstrained              12
 :final-checks                    12342
 :max-memory                      373.38
 :memory                          115.80
 :minimized-lits                  42042
 :mk-bool-var                     65015
 :mk-clause                       302300
 :mk-clause-binary                23983
 :nlsat-conflicts                 159510
 :nlsat-decisions                 2360
 :nlsat-propagations              8831690
 :nlsat-restarts                  3
 :nlsat-stages                    4238559
 :num-allocs                      3319283717210.00
 :num-checks                      2
 :propagations                    15583684
 :restarts                        166
 :rlimit-count                    191626151
 :solve-eqs-elim-vars             39
 :solve-eqs-steps                 1216
 :time                            108.90
 :total-time                      108.90)
